
# ------------------------ INITIALIZATION ----------------------------
units 		metal
dimension	3
boundary	p   p	p
atom_style	atomic

# ----------------------- ATOM DEFINITION ----------------------------
read_data        AlCualloy.lmp 

# ------------------------ FORCE FIELDS ------------------------------
pair_style   meam
pair_coeff	 * * Library.meam Al Si Mg Cu Fe alloy.meam Al Mg Cu

velocity       all      create 300 4928459 mom yes rot yes dist gaussian units box

# ------------------------- SETTINGS ---------------------------------
compute    1 all stress/atom NULL
compute    2 all reduce sum c_1[1] c_1[2] c_1[3]
compute csym all centro/atom bcc
compute peratom all pe/atom 
######################################
# EQUILIBRATION
reset_timestep	0
#neighbor            0.2 bin
#neigh_modify        every 2 delay 10 check yes page 100000

timestep 0.001

velocity all create 300 12345 mom yes rot no
fix 1 all npt temp 300 300 1 iso 0 0 1 drag 1 

# Set thermo output
thermo 100
thermo_style custom step lx ly lz press pxx pyy pzz pe temp

# Run for at least 10 picosecond (assuming 1 fs timestep)
run 20000
unfix 1


# Store final cell length for strain calculations
#change_box all boundary p p s

variable tmp equal "lx"
variable L0 equal ${tmp}
print "Initial Length, L0: ${L0}"

######################################
# DEFORMATION in X-direction

reset_timestep	0
timestep 0.001
#fix     1  all nvt  temp  300 300 1 

fix		1 all npt temp 300 300 1 y 0 0 1 z 0 0 1 drag 1 
variable srate equal 1.0e9
variable srate1 equal "v_srate / 1.0e12"   #tension
fix		2 all deform 1 x erate ${srate1} units box remap x

# Output strain and stress info to file
# For units metal, pressure is in [bars] = 100 [kPa] = 1/10000 [GPa]
# p2, p3, p4 are in GPa
variable strain equal "(lx - v_L0)/v_L0"
variable p1 equal "v_strain"
variable p2 equal "-pxx/10000"
variable p3 equal "-pyy/10000"
variable p4 equal "-pzz/10000"
fix def1 all print 100 "${p1} ${p2} ${p3} ${p4}" file alloy.def1.txt screen no

# For atomic structure inspection
dump       1 all atom 1000 dump.final

# Use cfg for AtomEye
dump 		2 all cfg 500 dump.tensile_*.cfg mass type xs ys zs c_csym c_peratom fx fy fz

# Display thermo
thermo 	100
thermo_style	custom step v_strain temp v_p2 v_p3 v_p4 ke pe press

run	   200000

# SIMULATION DONE
print "All done"

